&GLOBAL
  PROJECT composite
  RUN_TYPE MD
&END GLOBAL
&FORCE_EVAL
  METHOD QS
  &DFT
    BASIS_SET_FILE_NAME BASIS_MOLOPT
    POTENTIAL_FILE_NAME GTH_POTENTIALS
  &END DFT
  &SUBSYS
    &CELL
      ABC 25.0 25.0 25.0
    &END CELL
    &COORD
      K 3.000215 8.000586 6.964215
      Fe 3.000215 9.823950 10.126745
      Fe 4.823579 8.000586 10.126745
      S 3.000215 8.000586 15.284725
      S 3.000215 8.000586 11.293824
    &END COORD
  &END SUBSYS
&END FORCE_EVAL
&MOTION
  &MD
    ENSEMBLE NVT
    TEMPERATURE 300
    TIMESTEP 0.5
    STEPS 1000
    &THERMOSTAT
      TYPE NOSE
      &NOSE
        TIMECON = 100
      &END NOSE
    &END THERMOSTAT
  &END MD
&END MOTION
