K  Fe S 
 1.0000000000000000
    25.0000000000000000    0.0000000000000000    0.0000000000000000
     0.0000000000000000   25.0000000000000000    0.0000000000000000
     0.0000000000000000    0.0000000000000000   25.0000000000000000
 K   Fe  S  
   1   2   2
Cartesian
  3.0002151044533387  8.0005863673823860  6.9642147629764555
  3.0002151044533387  9.8239500773823867 10.1267445379764549
  4.8235788144533389  8.0005863673823860 10.1267445379764549
  3.0002151044533387  8.0005863673823860 15.2847245930033981
  3.0002151044533387  8.0005863673823860 11.2938240329495141
