&GLOBAL
  PROJECT composite
  RUN_TYPE MD
&END GLOBAL
&FORCE_EVAL
  METHOD QS
  &DFT
    BASIS_SET_FILE_NAME BASIS_MOLOPT
    POTENTIAL_FILE_NAME GTH_POTENTIALS
  &END DFT
  &SUBSYS
    &CELL
      ABC 25.0 25.0 25.0
    &END CELL
    &COORD
      K 15.288536 3.000215 8.000586
      Fe 15.288536 4.823579 11.163116
      Fe 17.111900 3.000215 11.163116
      S 15.288536 3.000215 16.321096
      S 15.288536 3.000215 12.330196
    &END COORD
  &END SUBSYS
&END FORCE_EVAL
&MOTION
  &MD
    ENSEMBLE NVT
    TEMPERATURE 300
    TIMESTEP 0.5
    STEPS 1000
    &THERMOSTAT
      TYPE NOSE
      &NOSE
        TIMECON = 100
      &END NOSE
    &END THERMOSTAT
  &END MD
&END MOTION
