K  Fe S 
 1.0000000000000000
    25.0000000000000000    0.0000000000000000    0.0000000000000000
     0.0000000000000000   25.0000000000000000    0.0000000000000000
     0.0000000000000000    0.0000000000000000   25.0000000000000000
 K   Fe  S  
   1   2   2
Cartesian
 15.2885359691576745  3.0002151044533387  8.0005863673823860
 15.2885359691576745  4.8235788144533389 11.1631161423823855
 17.1118996791576734  3.0002151044533387 11.1631161423823855
 15.2885359691576745  3.0002151044533387 16.3210961974093287
 15.2885359691576745  3.0002151044533387 12.3301956373554447
