# LAMMPS Crystal Melting Script for Ba5Li2WO53
# Takes ordered crystal structure and melts it at high temperature
units metal
atom_style charge
boundary p p p
processors * * *  # Use all available processors

# Read CRYSTAL structure from Materials Project
read_data Ba5Li2WO53_crystal.data

# Define potential
# Morse potential for strong ceramic bonding
# This gives REAL solid behavior, not gas!

# Morse potential - much better for solids than LJ
pair_style morse 12.0
# pair_coeff i j D0 alpha r0
# D0=5.0 eV (VERY strong bonds - ceramics need this!)
# alpha=2.0 (steepness)  
# r0=2.5 Angstrom (equilibrium bond distance)
pair_coeff * * 5.0 2.0 2.5

# This will give:
# - Strong attraction at ~2.5 Angstrom (solid density)
# - Strong repulsion below 2.0 Angstrom (atoms don't overlap)
# - Negligible interaction beyond 5-6 Angstrom

# Alternative: Use a tabulated potential from DFT if available
# pair_style table linear 1000
# pair_coeff * * potential.table ENTRY

# Neighbor list
neighbor 2.0 bin
neigh_modify every 1 delay 0 check yes

# Initial minimization of crystal
minimize 1.0e-4 1.0e-6 1000 10000

# Initial velocities
velocity all create 300 12345 dist gaussian mom yes rot yes

# STAGE 1: Heat crystal from 300K to 5000K over 100 ps
# Use NVT instead of NPT to prevent excessive expansion
fix 1 all nvt temp 300 5000 $(100.0*dt)
timestep 0.001

# Output
thermo 1000
thermo_style custom step time temp press vol etotal ke pe density
dump 1 all custom 5000 Ba5Li2WO53_melting_trajectory.dump id type x y z vx vy vz

print "Starting MELTING of Ba5Li2WO53: heating crystal from 300K to 5000K"
run 100000

# STAGE 2: Hold at 5000K for 50 ps to ensure fully melted
unfix 1
fix 1 all nvt temp 5000 5000 $(100.0*dt)

print "Equilibrating Ba5Li2WO53 MELT at 5000K for 50 ps"
run 50000

# Save melted/liquid structure
write_data Ba5Li2WO53_melted_liquid.data nocoeff
write_dump all xyz Ba5Li2WO53_melted_liquid.xyz modify element O Li W Ba
undump 1

print "MELTING COMPLETE for {formula} - crystal is now liquid at $(temp)K"
